c FILE: DSJC250.1
c
c SOURCE: David Johnson (dsj@research.att.com)
c
c DESCRIPTION: Random graph used in the paper
c              "Optimization by Simulated Annealing: An
c               Experimental Evaluation; Part II, Graph
c               Coloring and Number Partitioning" by
c              David S. Johnson, Cecilia R. Aragon, 
c              Lyle A. McGeoch and Catherine Schevon
c              Operations Research, 39, 378-406 (1991)
c
p edge 250 6436
e 10 8
e 15 8
e 29 16
e 31 16
e 32 24
e 33 32
e 34 32
e 39 8
e 40 32
e 47 40
e 49 8
e 49 32
e 49 48
e 50 32
e 54 24
e 55 40
e 56 32
e 59 32
e 59 48
e 61 56
e 62 8
e 63 16
e 63 32
e 65 64
e 66 24
e 66 56
e 68 8
e 69 32
e 69 64
e 70 56
e 71 16
e 71 24
e 71 40
e 71 64
e 74 24
e 74 48
e 74 56
e 75 56
e 76 40
e 76 48
e 76 64
e 77 32
e 78 56
e 79 56
e 81 8
e 81 56
e 83 64
e 83 80
e 84 56
e 85 40
e 85 48
e 85 80
e 86 48
e 88 32
e 90 8
e 90 72
e 91 16
e 91 88
e 92 64
e 92 88
e 95 32
e 95 48
e 95 72
e 96 64
e 96 72
e 98 96
e 99 16
e 100 40
e 100 72
e 101 8
e 101 24
e 102 16
e 102 88
e 104 40
e 104 56
e 105 96
e 106 56
e 107 8
e 108 24
e 108 80
e 108 88
e 110 96
e 111 48
e 111 80
e 111 104
e 113 64
e 114 112
e 117 16
e 117 72
e 118 72
e 119 24
e 119 32
e 119 64
e 120 64
e 121 8
e 121 104
e 122 16
e 122 24
e 122 104
e 123 32
e 123 56
e 123 64
e 123 120
e 124 72
e 125 32
e 125 104
e 126 16
e 128 24
e 129 88
e 129 104
e 130 48
e 130 56
e 130 128
e 131 72
e 132 16
e 132 32
e 132 48
e 132 72
e 132 112
e 133 48
e 134 24
e 134 88
e 134 112
e 135 80
e 136 24
e 139 8
e 140 16
e 141 128
e 143 32
e 143 72
e 143 112
e 144 56
e 144 120
e 146 16
e 146 48
e 146 64
e 146 72
e 146 96
e 146 136
e 148 8
e 148 32
e 149 16
e 150 8
e 150 16
e 151 56
e 151 112
e 151 144
e 152 72
e 152 96
e 152 136
e 152 144
e 153 32
e 153 88
e 153 144
e 154 24
e 154 64
e 154 88
e 154 128
e 155 24
e 155 72
e 156 64
e 156 120
e 157 24
e 157 120
e 158 80
e 158 96
e 159 48
e 159 80
e 159 144
e 160 56
e 160 104
e 161 32
e 162 112
e 163 32
e 163 160
e 165 112
e 166 40
e 166 72
e 167 88
e 168 96
e 168 152
e 169 8
e 169 24
e 169 40
e 169 88
e 169 152
e 170 168
e 171 16
e 171 104
e 171 120
e 173 32
e 173 152
e 174 16
e 174 48
e 175 8
e 177 8
e 177 48
e 177 136
e 177 176
e 180 24
e 180 136
e 180 144
e 180 168
e 181 112
e 181 160
e 182 80
e 182 104
e 182 160
e 182 168
e 183 64
e 183 104
e 184 56
e 185 72
e 185 80
e 186 56
e 186 80
e 187 80
e 187 120
e 188 16
e 189 16
e 189 48
e 189 72
e 189 112
e 189 136
e 190 64
e 190 160
e 191 40
e 191 128
e 191 152
e 192 120
e 193 80
e 193 96
e 193 128
e 194 176
e 195 72
e 195 152
e 195 160
e 196 8
e 196 88
e 196 104
e 196 120
e 197 8
e 197 112
e 198 40
e 198 112
e 198 168
e 199 40
e 199 64
e 199 192
e 200 40
e 200 80
e 200 88
e 200 120
e 201 48
e 201 80
e 201 120
e 201 192
e 203 32
e 203 88
e 203 200
e 205 72
e 206 144
e 207 56
e 207 80
e 207 128
e 207 176
e 208 8
e 208 32
e 208 72
e 208 200
e 209 72
e 209 104
e 210 64
e 210 168
e 211 136
e 212 40
e 212 96
e 213 48
e 213 144
e 213 168
e 214 200
e 215 80
e 216 32
e 217 80
e 217 200
e 218 48
e 218 112
e 219 64
e 219 120
e 219 128
e 219 152
e 220 96
e 221 64
e 221 136
e 222 64
e 223 80
e 223 120
e 224 104
e 224 144
e 224 160
e 224 184
e 225 48
e 225 136
e 226 8
e 226 16
e 226 48
e 226 160
e 227 40
e 227 112
e 227 152
e 228 32
e 228 40
e 228 160
e 228 176
e 230 16
e 230 200
e 231 48
e 231 136
e 232 8
e 232 40
e 232 216
e 233 40
e 234 48
e 235 72
e 235 152
e 235 224
e 236 32
e 236 120
e 236 144
e 236 168
e 236 192
e 237 40
e 237 96
e 237 176
e 237 184
e 237 216
e 238 32
e 238 112
e 238 176
e 241 8
e 241 16
e 241 48
e 241 120
e 241 184
e 242 128
e 242 176
e 243 8
e 243 128
e 243 200
e 243 240
e 244 192
e 245 64
e 245 72
e 245 144
e 246 240
e 247 72
e 247 112
e 248 136
e 248 144
e 249 16
e 249 24
e 249 104
e 249 248
e 250 208
e 250 240
